\ This file has been generated by DOcplex
\ ENCODING=ISO-8859-1
\Problem name: Orandom19142_24.lp

Minimize
 obj: - 660.000040500869 x0 - 330.000020250434 x1 - 165.000010125217 x2
      - 636.000040500869 x3 - 318.000020250434 x4 - 159.000010125217 x5
      - 648.000040500869 x6 - 324.000020250434 x7 - 162.000010125217 x8
      - 656.000040500869 x9 - 328.000020250434 x10 - 164.000010125217 x11
      - 656.000040500869 x12 - 328.000020250434 x13 - 164.000010125217 x14
      - 640.000040500869 x15 - 320.000020250434 x16 - 160.000010125217 x17
      - 640.000040500869 x18 - 320.000020250434 x19 - 160.000010125217 x20
      - 644.000040500869 x21 - 322.000020250434 x22 - 161.000010125217 x23 + [
      432.000023143354 x0^2 + 432.000023143354 x0*x1 + 216.000011571677 x0*x2
      + 800.000046286707 x0*x3 + 400.000023143354 x0*x4 + 200.000011571677 x0*x5
      + 736.000046286707 x0*x6 + 368.000023143354 x0*x7 + 184.000011571677 x0*x8
      + 736.000046286707 x0*x9 + 368.000023143354 x0*x10
      + 184.000011571677 x0*x11 + 736.000046286707 x0*x12
      + 368.000023143354 x0*x13 + 184.000011571677 x0*x14
      + 800.000046286707 x0*x15 + 400.000023143354 x0*x16
      + 200.000011571677 x0*x17 + 736.000046286707 x0*x18
      + 368.000023143354 x0*x19 + 184.000011571677 x0*x20
      + 736.000046286707 x0*x21 + 368.000023143354 x0*x22
      + 184.000011571677 x0*x23 + 108.000005785838 x1^2 + 108.000005785838 x1*x2
      + 400.000023143354 x1*x3 + 200.000011571677 x1*x4 + 100.000005785838 x1*x5
      + 368.000023143354 x1*x6 + 184.000011571677 x1*x7 + 92.000005785838 x1*x8
      + 368.000023143354 x1*x9 + 184.000011571677 x1*x10
      + 92.000005785838 x1*x11 + 368.000023143354 x1*x12
      + 184.000011571677 x1*x13 + 92.000005785838 x1*x14
      + 400.000023143354 x1*x15 + 200.000011571677 x1*x16
      + 100.000005785838 x1*x17 + 368.000023143354 x1*x18
      + 184.000011571677 x1*x19 + 92.000005785838 x1*x20
      + 368.000023143354 x1*x21 + 184.000011571677 x1*x22
      + 92.000005785838 x1*x23 + 27.000001446460 x2^2 + 200.000011571677 x2*x3
      + 100.000005785838 x2*x4 + 50.000002892919 x2*x5 + 184.000011571677 x2*x6
      + 92.000005785838 x2*x7 + 46.000002892919 x2*x8 + 184.000011571677 x2*x9
      + 92.000005785838 x2*x10 + 46.000002892919 x2*x11
      + 184.000011571677 x2*x12 + 92.000005785838 x2*x13
      + 46.000002892919 x2*x14 + 200.000011571677 x2*x15
      + 100.000005785838 x2*x16 + 50.000002892919 x2*x17
      + 184.000011571677 x2*x18 + 92.000005785838 x2*x19
      + 46.000002892919 x2*x20 + 184.000011571677 x2*x21
      + 92.000005785838 x2*x22 + 46.000002892919 x2*x23 + 464.000023143354 x3^2
      + 464.000023143354 x3*x4 + 232.000011571677 x3*x5 + 736.000046286707 x3*x6
      + 368.000023143354 x3*x7 + 184.000011571677 x3*x8 + 800.000046286707 x3*x9
      + 400.000023143354 x3*x10 + 200.000011571677 x3*x11
      + 736.000046286707 x3*x12 + 368.000023143354 x3*x13
      + 184.000011571677 x3*x14 + 800.000046286707 x3*x15
      + 400.000023143354 x3*x16 + 200.000011571677 x3*x17
      + 736.000046286707 x3*x18 + 368.000023143354 x3*x19
      + 184.000011571677 x3*x20 + 736.000046286707 x3*x21
      + 368.000023143354 x3*x22 + 184.000011571677 x3*x23
      + 116.000005785838 x4^2 + 116.000005785838 x4*x5 + 368.000023143354 x4*x6
      + 184.000011571677 x4*x7 + 92.000005785838 x4*x8 + 400.000023143354 x4*x9
      + 200.000011571677 x4*x10 + 100.000005785838 x4*x11
      + 368.000023143354 x4*x12 + 184.000011571677 x4*x13
      + 92.000005785838 x4*x14 + 400.000023143354 x4*x15
      + 200.000011571677 x4*x16 + 100.000005785838 x4*x17
      + 368.000023143354 x4*x18 + 184.000011571677 x4*x19
      + 92.000005785838 x4*x20 + 368.000023143354 x4*x21
      + 184.000011571677 x4*x22 + 92.000005785838 x4*x23 + 29.000001446460 x5^2
      + 184.000011571677 x5*x6 + 92.000005785838 x5*x7 + 46.000002892919 x5*x8
      + 200.000011571677 x5*x9 + 100.000005785838 x5*x10
      + 50.000002892919 x5*x11 + 184.000011571677 x5*x12
      + 92.000005785838 x5*x13 + 46.000002892919 x5*x14
      + 200.000011571677 x5*x15 + 100.000005785838 x5*x16
      + 50.000002892919 x5*x17 + 184.000011571677 x5*x18
      + 92.000005785838 x5*x19 + 46.000002892919 x5*x20
      + 184.000011571677 x5*x21 + 92.000005785838 x5*x22
      + 46.000002892919 x5*x23 + 368.000023143354 x6^2 + 368.000023143354 x6*x7
      + 184.000011571677 x6*x8 + 736.000046286707 x6*x9
      + 368.000023143354 x6*x10 + 184.000011571677 x6*x11
      + 736.000046286707 x6*x12 + 368.000023143354 x6*x13
      + 184.000011571677 x6*x14 + 736.000046286707 x6*x15
      + 368.000023143354 x6*x16 + 184.000011571677 x6*x17
      + 736.000046286707 x6*x18 + 368.000023143354 x6*x19
      + 184.000011571677 x6*x20 + 736.000046286707 x6*x21
      + 368.000023143354 x6*x22 + 184.000011571677 x6*x23 + 92.000005785838 x7^2
      + 92.000005785838 x7*x8 + 368.000023143354 x7*x9 + 184.000011571677 x7*x10
      + 92.000005785838 x7*x11 + 368.000023143354 x7*x12
      + 184.000011571677 x7*x13 + 92.000005785838 x7*x14
      + 368.000023143354 x7*x15 + 184.000011571677 x7*x16
      + 92.000005785838 x7*x17 + 368.000023143354 x7*x18
      + 184.000011571677 x7*x19 + 92.000005785838 x7*x20
      + 368.000023143354 x7*x21 + 184.000011571677 x7*x22
      + 92.000005785838 x7*x23 + 23.000001446460 x8^2 + 184.000011571677 x8*x9
      + 92.000005785838 x8*x10 + 46.000002892919 x8*x11
      + 184.000011571677 x8*x12 + 92.000005785838 x8*x13
      + 46.000002892919 x8*x14 + 184.000011571677 x8*x15
      + 92.000005785838 x8*x16 + 46.000002892919 x8*x17
      + 184.000011571677 x8*x18 + 92.000005785838 x8*x19
      + 46.000002892919 x8*x20 + 184.000011571677 x8*x21
      + 92.000005785838 x8*x22 + 46.000002892919 x8*x23 + 400.000023143354 x9^2
      + 400.000023143354 x9*x10 + 200.000011571677 x9*x11
      + 736.000046286707 x9*x12 + 368.000023143354 x9*x13
      + 184.000011571677 x9*x14 + 736.000046286707 x9*x15
      + 368.000023143354 x9*x16 + 184.000011571677 x9*x17
      + 736.000046286707 x9*x18 + 368.000023143354 x9*x19
      + 184.000011571677 x9*x20 + 736.000046286707 x9*x21
      + 368.000023143354 x9*x22 + 184.000011571677 x9*x23
      + 100.000005785838 x10^2 + 100.000005785838 x10*x11
      + 368.000023143354 x10*x12 + 184.000011571677 x10*x13
      + 92.000005785838 x10*x14 + 368.000023143354 x10*x15
      + 184.000011571677 x10*x16 + 92.000005785838 x10*x17
      + 368.000023143354 x10*x18 + 184.000011571677 x10*x19
      + 92.000005785838 x10*x20 + 368.000023143354 x10*x21
      + 184.000011571677 x10*x22 + 92.000005785838 x10*x23
      + 25.000001446460 x11^2 + 184.000011571677 x11*x12
      + 92.000005785838 x11*x13 + 46.000002892919 x11*x14
      + 184.000011571677 x11*x15 + 92.000005785838 x11*x16
      + 46.000002892919 x11*x17 + 184.000011571677 x11*x18
      + 92.000005785838 x11*x19 + 46.000002892919 x11*x20
      + 184.000011571677 x11*x21 + 92.000005785838 x11*x22
      + 46.000002892919 x11*x23 + 368.000023143354 x12^2
      + 368.000023143354 x12*x13 + 184.000011571677 x12*x14
      + 736.000046286707 x12*x15 + 368.000023143354 x12*x16
      + 184.000011571677 x12*x17 + 736.000046286707 x12*x18
      + 368.000023143354 x12*x19 + 184.000011571677 x12*x20
      + 736.000046286707 x12*x21 + 368.000023143354 x12*x22
      + 184.000011571677 x12*x23 + 92.000005785838 x13^2
      + 92.000005785838 x13*x14 + 368.000023143354 x13*x15
      + 184.000011571677 x13*x16 + 92.000005785838 x13*x17
      + 368.000023143354 x13*x18 + 184.000011571677 x13*x19
      + 92.000005785838 x13*x20 + 368.000023143354 x13*x21
      + 184.000011571677 x13*x22 + 92.000005785838 x13*x23
      + 23.000001446460 x14^2 + 184.000011571677 x14*x15
      + 92.000005785838 x14*x16 + 46.000002892919 x14*x17
      + 184.000011571677 x14*x18 + 92.000005785838 x14*x19
      + 46.000002892919 x14*x20 + 184.000011571677 x14*x21
      + 92.000005785838 x14*x22 + 46.000002892919 x14*x23
      + 400.000023143354 x15^2 + 400.000023143354 x15*x16
      + 200.000011571677 x15*x17 + 736.000046286707 x15*x18
      + 368.000023143354 x15*x19 + 184.000011571677 x15*x20
      + 736.000046286707 x15*x21 + 368.000023143354 x15*x22
      + 184.000011571677 x15*x23 + 100.000005785838 x16^2
      + 100.000005785838 x16*x17 + 368.000023143354 x16*x18
      + 184.000011571677 x16*x19 + 92.000005785838 x16*x20
      + 368.000023143354 x16*x21 + 184.000011571677 x16*x22
      + 92.000005785838 x16*x23 + 25.000001446460 x17^2
      + 184.000011571677 x17*x18 + 92.000005785838 x17*x19
      + 46.000002892919 x17*x20 + 184.000011571677 x17*x21
      + 92.000005785838 x17*x22 + 46.000002892919 x17*x23
      + 400.000023143354 x18^2 + 400.000023143354 x18*x19
      + 200.000011571677 x18*x20 + 736.000046286707 x18*x21
      + 368.000023143354 x18*x22 + 184.000011571677 x18*x23
      + 100.000005785838 x19^2 + 100.000005785838 x19*x20
      + 368.000023143354 x19*x21 + 184.000011571677 x19*x22
      + 92.000005785838 x19*x23 + 25.000001446460 x20^2
      + 184.000011571677 x20*x21 + 92.000005785838 x20*x22
      + 46.000002892919 x20*x23 + 400.000023143354 x21^2
      + 400.000023143354 x21*x22 + 200.000011571677 x21*x23
      + 100.000005785838 x22^2 + 100.000005785838 x22*x23
      + 25.000001446460 x23^2 ]/2 + 563.500035438260
Subject To

Bounds
 0 <= x0 <= 1
 0 <= x1 <= 1
 0 <= x2 <= 1
 0 <= x3 <= 1
 0 <= x4 <= 1
 0 <= x5 <= 1
 0 <= x6 <= 1
 0 <= x7 <= 1
 0 <= x8 <= 1
 0 <= x9 <= 1
 0 <= x10 <= 1
 0 <= x11 <= 1
 0 <= x12 <= 1
 0 <= x13 <= 1
 0 <= x14 <= 1
 0 <= x15 <= 1
 0 <= x16 <= 1
 0 <= x17 <= 1
 0 <= x18 <= 1
 0 <= x19 <= 1
 0 <= x20 <= 1
 0 <= x21 <= 1
 0 <= x22 <= 1
 0 <= x23 <= 1

Binaries
 x0 x1 x2 x3 x4 x5 x6 x7 x8 x9 x10 x11 x12 x13 x14 x15 x16 x17 x18 x19 x20 x21
 x22 x23
End
